
Gurobi 11.0.2 (win64) logging started Mon Aug 19 17:09:53 2024

Set parameter LogFile to value "D:\Documenti\Scuola\Laurea magistrale unibs\laurea-unibs-mkfsp\output\2024-08-19T13_57_45.433552\logs\instance08_bucket1.log"
Set parameter TimeLimit to value 400
Set parameter MIPGap to value 0
Gurobi Optimizer version 11.0.2 build v11.0.2rc0 (win64 - Windows 10.0 (19045.2))

CPU model: Intel(R) Core(TM) i5-4670 CPU @ 3.40GHz, instruction set [SSE2|AVX|AVX2]
Thread count: 4 physical cores, 4 logical processors, using up to 4 threads

Optimize a model with 1590 rows, 6128 columns and 171717 nonzeros
Model fingerprint: 0x0f06864d
Variable types: 0 continuous, 6128 integer (6059 binary)
Coefficient statistics:
  Matrix range     [1e+00, 8e+03]
  Objective range  [7e+02, 8e+03]
  Bounds range     [1e+00, 1e+00]
  RHS range        [1e+00, 4e+05]
Found heuristic solution: objective 411374.00000
Presolve time: 0.32s
Presolved: 1590 rows, 6128 columns, 171717 nonzeros
Variable types: 0 continuous, 6128 integer (6059 binary)

Root relaxation: objective 4.206830e+05, 927 iterations, 0.03 seconds (0.02 work units)

    Nodes    |    Current Node    |     Objective Bounds      |     Work
 Expl Unexpl |  Obj  Depth IntInf | Incumbent    BestBd   Gap | It/Node Time

H    0     0                    420683.00000 420683.000  0.00%     -    0s
     0     0 420683.000    0  372 420683.000 420683.000  0.00%     -    0s

Explored 1 nodes (927 simplex iterations) in 0.39 seconds (0.32 work units)
Thread count was 4 (of 4 available processors)

Solution count 2: 420683 411374 

Optimal solution found (tolerance 0.00e+00)
Best objective 4.206830000000e+05, best bound 4.206830000000e+05, gap 0.0000%
